
n_res = 4;
rcap = [31, 29, 307, 283];
rtype = [1, 1, 2, 2];
n_tasks = 50;
modes =  [{1, 2, 3}, {4, 5, 6}, {7, 8, 9}, {10, 11, 12}, {13, 14, 15}, {16, 17, 18}, {19, 20, 21}, {22, 23, 24}, {25, 26, 27}, {28, 29, 30}, {31, 32, 33}, {34, 35, 36}, {37, 38, 39}, {40, 41, 42}, {43, 44, 45}, {46, 47, 48}, {49, 50, 51}, {52, 53, 54}, {55, 56, 57}, {58, 59, 60}, {61, 62, 63}, {64, 65, 66}, {67, 68, 69}, {70, 71, 72}, {73, 74, 75}, {76, 77, 78}, {79, 80, 81}, {82, 83, 84}, {85, 86, 87}, {88, 89, 90}, {91, 92, 93}, {94, 95, 96}, {97, 98, 99}, {100, 101, 102}, {103, 104, 105}, {106, 107, 108}, {109, 110, 111}, {112, 113, 114}, {115, 116, 117}, {118, 119, 120}, {121, 122, 123}, {124, 125, 126}, {127, 128, 129}, {130, 131, 132}, {133, 134, 135}, {136, 137, 138}, {139, 140, 141}, {142, 143, 144}, {145, 146, 147}, {148, 149, 150}];
succ =  [{15, 8, 6, 5}, {15, 6, 5}, {8, 5}, {18, 5}, {16, 13, 10}, {11, 9}, {18, 16, 13, 12}, {9}, {19, 18, 17, 16, 14}, {25, 19, 17, 11}, {12}, {20, 14}, {19, 14}, {27, 26, 24, 22, 21}, {27, 25, 24, 23, 19}, {30, 25, 21, 20}, {34, 32, 27, 24}, {30, 28, 23}, {37, 32, 31, 30, 29, 26}, {32, 31, 29, 27, 26}, {28, 23}, {37, 32, 30, 29, 28}, {37, 34, 32, 31, 29}, {37, 31, 29, 28}, {37, 35, 29}, {35, 34, 33}, {46, 44, 37, 36, 33}, {45, 44, 43, 41, 39, 35}, {44, 36, 33}, {46, 45, 44, 43, 41, 40, 39}, {45, 44, 40, 38, 36}, {49, 46, 45, 44, 43, 39}, {45, 43, 41, 40, 39}, {44, 43, 41, 40, 39}, {50, 46, 40, 38}, {48, 43, 39}, {50, 43, 42}, {49, 48, 47}, {50, 42}, {49, 47}, {49, 48}, {47}, {47}, {47}, {48}, {47}, {}, {}, {}, {}];
n_opt = 150;
dur = [1, 5, 8, 7, 8, 10, 4, 5, 10, 1, 4, 7, 1, 5, 9, 2, 7, 8, 8, 9, 10, 1, 7, 10, 7, 8, 10, 5, 6, 9, 2, 4, 5, 7, 9, 10, 4, 8, 10, 2, 4, 6, 7, 8, 9, 7, 8, 9, 1, 3, 6, 4, 5, 9, 8, 9, 10, 3, 7, 9, 3, 4, 10, 6, 7, 10, 4, 5, 10, 3, 6, 7, 5, 9, 10, 1, 5, 8, 2, 7, 9, 2, 5, 8, 6, 8, 9, 4, 5, 10, 5, 6, 7, 2, 5, 8, 4, 5, 7, 2, 8, 9, 2, 3, 5, 5, 6, 10, 2, 5, 10, 1, 3, 10, 2, 6, 7, 1, 2, 5, 8, 9, 10, 3, 4, 9, 2, 6, 7, 1, 2, 6, 3, 4, 5, 1, 4, 5, 1, 3, 6, 1, 4, 5, 2, 7, 9, 2, 3, 5];
rreq = [|6, 5, 4, 5, 4, 3, 6, 4, 2, 5, 4, 3, 10, 8, 6, 7, 7, 7, 4, 3, 3, 5, 5, 5, 4, 4, 2, 4, 3, 2, 4, 4, 2, 5, 4, 3, 9, 9, 9, 10, 6, 4, 5, 3, 1, 5, 3, 2, 2, 1, 1, 2, 2, 2, 5, 4, 3, 5, 3, 1, 3, 2, 2, 8, 6, 5, 10, 9, 8, 8, 6, 6, 8, 7, 7, 5, 5, 4, 9, 7, 7, 9, 7, 7, 3, 2, 2, 9, 8, 8, 5, 5, 4, 9, 7, 6, 7, 5, 4, 10, 9, 9, 8, 5, 1, 7, 6, 5, 7, 7, 6, 7, 5, 4, 4, 4, 4, 6, 5, 4, 7, 5, 5, 6, 5, 4, 8, 5, 5, 7, 5, 4, 2, 2, 1, 10, 6, 5, 7, 6, 4, 9, 6, 3, 8, 4, 2, 4, 3, 2
 |6, 3, 2, 3, 3, 2, 3, 3, 3, 6, 6, 5, 6, 4, 4, 5, 3, 3, 5, 5, 4, 7, 4, 4, 7, 7, 6, 4, 3, 3, 5, 3, 2, 2, 2, 2, 9, 7, 6, 10, 10, 10, 4, 2, 2, 6, 5, 5, 8, 5, 2, 3, 2, 2, 5, 4, 4, 4, 4, 2, 6, 6, 3, 10, 6, 4, 6, 6, 5, 10, 9, 9, 8, 5, 4, 6, 6, 6, 8, 7, 6, 7, 4, 3, 9, 8, 7, 2, 2, 2, 10, 7, 3, 8, 6, 6, 9, 9, 9, 8, 8, 6, 2, 1, 1, 4, 4, 3, 5, 5, 5, 1, 1, 1, 7, 4, 3, 6, 5, 4, 8, 4, 4, 3, 2, 1, 6, 5, 4, 5, 5, 5, 9, 6, 3, 6, 4, 3, 8, 8, 8, 7, 3, 2, 7, 7, 7, 4, 3, 2
 |7, 7, 7, 10, 5, 3, 7, 6, 5, 4, 4, 3, 8, 6, 6, 8, 8, 8, 9, 9, 9, 5, 4, 4, 3, 2, 2, 7, 7, 7, 6, 6, 6, 5, 4, 4, 7, 5, 2, 7, 6, 4, 10, 4, 3, 9, 7, 6, 3, 3, 3, 3, 3, 3, 9, 9, 9, 6, 6, 4, 5, 3, 2, 3, 3, 1, 8, 7, 7, 5, 5, 5, 3, 3, 3, 6, 4, 3, 7, 6, 4, 10, 8, 4, 4, 4, 4, 10, 9, 9, 7, 5, 4, 7, 5, 3, 2, 2, 2, 4, 4, 3, 8, 6, 6, 8, 5, 2, 8, 8, 6, 8, 7, 5, 10, 10, 10, 4, 4, 2, 8, 6, 4, 6, 5, 4, 9, 7, 7, 4, 4, 4, 6, 5, 3, 9, 9, 8, 8, 5, 3, 9, 7, 7, 5, 3, 1, 9, 7, 5
 |8, 5, 5, 4, 3, 2, 8, 5, 5, 5, 5, 4, 6, 3, 2, 7, 5, 3, 5, 4, 2, 9, 7, 6, 5, 4, 3, 7, 6, 5, 6, 6, 6, 6, 5, 5, 4, 2, 2, 4, 4, 4, 6, 5, 5, 5, 5, 5, 10, 5, 4, 6, 6, 5, 9, 7, 5, 4, 3, 3, 9, 8, 7, 6, 5, 4, 9, 6, 1, 6, 6, 5, 1, 1, 1, 7, 4, 2, 8, 5, 4, 7, 4, 3, 8, 6, 6, 9, 6, 5, 7, 7, 7, 3, 3, 2, 8, 6, 6, 5, 4, 3, 6, 6, 5, 10, 7, 1, 8, 7, 7, 1, 1, 1, 2, 2, 2, 8, 8, 7, 6, 5, 4, 8, 7, 6, 4, 3, 3, 2, 1, 1, 9, 9, 9, 9, 5, 3, 4, 2, 2, 5, 5, 5, 4, 4, 4, 7, 7, 6|];